c Random generated cnf formula, satisfiable: true
p cnf 10 50
2 7 10 0
4 -5 10 0
5 -8 10 0
-6 7 10 0
-7 -6 2 0
3 -5 9 0
7 -5 -9 0
2 -1 3 0
-7 3 -6 0
-10 3 -8 0
2 -7 -10 0
7 -5 -1 0
-9 -3 8 0
4 -8 -2 0
-3 -4 5 0
-1 -6 10 0
-9 4 6 0
3 -9 4 0
1 5 -8 0
-6 4 -5 0
-2 -5 3 0
8 -2 -1 0
6 4 5 0
-5 6 -4 0
-9 -6 -1 0
9 -7 6 0
-6 -3 7 0
-9 -5 -10 0
-1 -10 6 0
-7 -9 -1 0
-10 -4 5 0
-10 7 -6 0
-4 6 8 0
5 -8 -2 0
-6 -2 -4 0
-9 -5 -4 0
-6 5 -8 0
2 9 -7 0
7 -4 10 0
-9 -2 -8 0
3 -9 -6 0
4 -1 5 0
-8 -5 -6 0
-7 -3 -6 0
-2 1 -4 0
-9 -5 2 0
2 7 5 0
-9 -1 -6 0
-4 1 5 0
7 -10 5 0
